p edge 532 3474
e 2 1
e 3 1
e 1 2
e 1 3
e 4 3
e 5 3
e 3 4
e 3 5
e 6 5
e 7 5
e 5 6
e 5 7
e 8 7
e 9 7
e 7 8
e 7 9
e 10 9
e 11 9
e 9 10
e 9 11
e 12 11
e 13 11
e 11 12
e 11 13
e 14 13
e 15 13
e 13 14
e 13 15
e 16 15
e 17 15
e 15 16
e 15 17
e 18 17
e 19 17
e 17 18
e 17 19
e 20 19
e 21 19
e 19 20
e 19 21
e 22 21
e 23 21
e 21 22
e 21 23
e 24 23
e 25 23
e 23 24
e 23 25
e 26 25
e 27 25
e 25 26
e 25 27
e 28 27
e 29 27
e 27 28
e 27 29
e 30 29
e 31 29
e 29 30
e 29 31
e 32 31
e 33 31
e 31 32
e 31 33
e 34 33
e 35 33
e 33 34
e 33 35
e 36 35
e 37 35
e 35 36
e 35 37
e 38 37
e 39 37
e 37 38
e 37 39
e 40 39
e 41 39
e 39 40
e 39 41
e 42 41
e 43 41
e 41 42
e 41 43
e 44 43
e 45 43
e 43 44
e 43 45
e 46 45
e 47 45
e 45 46
e 45 47
e 48 47
e 49 47
e 47 48
e 47 49
e 50 49
e 51 49
e 49 50
e 49 51
e 52 51
e 53 51
e 51 52
e 51 53
e 54 53
e 55 53
e 53 54
e 53 55
e 56 55
e 57 55
e 55 56
e 55 57
e 58 57
e 59 57
e 57 58
e 57 59
e 60 59
e 61 59
e 59 60
e 59 61
e 62 61
e 63 61
e 61 62
e 61 63
e 64 63
e 65 63
e 63 64
e 63 65
e 66 65
e 67 65
e 65 66
e 65 67
e 68 67
e 69 67
e 67 68
e 67 69
e 70 69
e 71 69
e 69 70
e 69 71
e 72 71
e 73 71
e 74 71
e 71 72
e 71 73
e 72 73
e 74 73
e 75 73
e 76 73
e 71 74
e 72 74
e 73 74
e 73 75
e 74 75
e 76 75
e 73 76
e 74 76
e 75 76
e 78 77
e 79 77
e 80 77
e 153 77
e 154 77
e 77 78
e 153 78
e 154 78
e 77 79
e 78 79
e 80 79
e 81 79
e 82 79
e 155 79
e 156 79
e 77 80
e 78 80
e 79 80
e 155 80
e 156 80
e 79 81
e 80 81
e 82 81
e 83 81
e 84 81
e 157 81
e 158 81
e 79 82
e 80 82
e 81 82
e 157 82
e 158 82
e 81 83
e 82 83
e 84 83
e 85 83
e 86 83
e 159 83
e 160 83
e 81 84
e 82 84
e 83 84
e 159 84
e 160 84
e 83 85
e 84 85
e 86 85
e 87 85
e 88 85
e 161 85
e 162 85
e 83 86
e 84 86
e 85 86
e 161 86
e 162 86
e 85 87
e 86 87
e 88 87
e 89 87
e 90 87
e 163 87
e 164 87
e 85 88
e 86 88
e 87 88
e 163 88
e 164 88
e 87 89
e 88 89
e 90 89
e 91 89
e 92 89
e 165 89
e 166 89
e 87 90
e 88 90
e 89 90
e 165 90
e 166 90
e 89 91
e 90 91
e 92 91
e 93 91
e 94 91
e 167 91
e 168 91
e 89 92
e 90 92
e 91 92
e 167 92
e 168 92
e 91 93
e 92 93
e 94 93
e 95 93
e 96 93
e 169 93
e 170 93
e 91 94
e 92 94
e 93 94
e 169 94
e 170 94
e 93 95
e 94 95
e 96 95
e 97 95
e 98 95
e 171 95
e 172 95
e 93 96
e 94 96
e 95 96
e 171 96
e 172 96
e 95 97
e 96 97
e 98 97
e 99 97
e 100 97
e 173 97
e 174 97
e 95 98
e 96 98
e 97 98
e 173 98
e 174 98
e 97 99
e 98 99
e 100 99
e 101 99
e 102 99
e 175 99
e 176 99
e 97 100
e 98 100
e 99 100
e 175 100
e 176 100
e 99 101
e 100 101
e 102 101
e 103 101
e 104 101
e 177 101
e 178 101
e 99 102
e 100 102
e 101 102
e 177 102
e 178 102
e 101 103
e 102 103
e 104 103
e 105 103
e 106 103
e 179 103
e 180 103
e 101 104
e 102 104
e 103 104
e 179 104
e 180 104
e 103 105
e 104 105
e 106 105
e 107 105
e 108 105
e 181 105
e 182 105
e 103 106
e 104 106
e 105 106
e 181 106
e 182 106
e 105 107
e 106 107
e 108 107
e 109 107
e 110 107
e 183 107
e 184 107
e 105 108
e 106 108
e 107 108
e 183 108
e 184 108
e 107 109
e 108 109
e 110 109
e 111 109
e 112 109
e 185 109
e 186 109
e 107 110
e 108 110
e 109 110
e 185 110
e 186 110
e 109 111
e 110 111
e 112 111
e 113 111
e 114 111
e 187 111
e 188 111
e 109 112
e 110 112
e 111 112
e 187 112
e 188 112
e 111 113
e 112 113
e 114 113
e 115 113
e 116 113
e 189 113
e 190 113
e 111 114
e 112 114
e 113 114
e 189 114
e 190 114
e 113 115
e 114 115
e 116 115
e 117 115
e 118 115
e 191 115
e 192 115
e 113 116
e 114 116
e 115 116
e 191 116
e 192 116
e 115 117
e 116 117
e 118 117
e 119 117
e 120 117
e 193 117
e 194 117
e 115 118
e 116 118
e 117 118
e 193 118
e 194 118
e 117 119
e 118 119
e 120 119
e 121 119
e 122 119
e 195 119
e 196 119
e 117 120
e 118 120
e 119 120
e 195 120
e 196 120
e 119 121
e 120 121
e 122 121
e 123 121
e 124 121
e 197 121
e 198 121
e 119 122
e 120 122
e 121 122
e 197 122
e 198 122
e 121 123
e 122 123
e 124 123
e 125 123
e 126 123
e 199 123
e 200 123
e 121 124
e 122 124
e 123 124
e 199 124
e 200 124
e 123 125
e 124 125
e 126 125
e 127 125
e 128 125
e 201 125
e 202 125
e 123 126
e 124 126
e 125 126
e 201 126
e 202 126
e 125 127
e 126 127
e 128 127
e 129 127
e 130 127
e 203 127
e 204 127
e 125 128
e 126 128
e 127 128
e 203 128
e 204 128
e 127 129
e 128 129
e 130 129
e 131 129
e 132 129
e 205 129
e 206 129
e 127 130
e 128 130
e 129 130
e 205 130
e 206 130
e 129 131
e 130 131
e 132 131
e 133 131
e 134 131
e 207 131
e 208 131
e 129 132
e 130 132
e 131 132
e 207 132
e 208 132
e 131 133
e 132 133
e 134 133
e 135 133
e 136 133
e 209 133
e 210 133
e 131 134
e 132 134
e 133 134
e 209 134
e 210 134
e 133 135
e 134 135
e 136 135
e 137 135
e 138 135
e 211 135
e 212 135
e 133 136
e 134 136
e 135 136
e 211 136
e 212 136
e 135 137
e 136 137
e 138 137
e 139 137
e 140 137
e 213 137
e 214 137
e 135 138
e 136 138
e 137 138
e 213 138
e 214 138
e 137 139
e 138 139
e 140 139
e 141 139
e 142 139
e 215 139
e 216 139
e 137 140
e 138 140
e 139 140
e 215 140
e 216 140
e 139 141
e 140 141
e 142 141
e 143 141
e 144 141
e 217 141
e 218 141
e 139 142
e 140 142
e 141 142
e 217 142
e 218 142
e 141 143
e 142 143
e 144 143
e 145 143
e 219 143
e 220 143
e 141 144
e 142 144
e 143 144
e 219 144
e 220 144
e 143 145
e 146 145
e 147 145
e 221 145
e 145 146
e 145 147
e 148 147
e 149 147
e 223 147
e 147 148
e 147 149
e 150 149
e 151 149
e 152 149
e 225 149
e 149 150
e 149 151
e 150 151
e 152 151
e 227 151
e 228 151
e 149 152
e 150 152
e 151 152
e 228 152
e 77 153
e 78 153
e 154 153
e 155 153
e 156 153
e 229 153
e 230 153
e 153 154
e 229 154
e 230 154
e 79 155
e 80 155
e 153 155
e 154 155
e 156 155
e 157 155
e 158 155
e 231 155
e 232 155
e 153 156
e 154 156
e 155 156
e 231 156
e 232 156
e 81 157
e 82 157
e 155 157
e 156 157
e 158 157
e 159 157
e 160 157
e 233 157
e 234 157
e 155 158
e 156 158
e 157 158
e 233 158
e 234 158
e 83 159
e 84 159
e 157 159
e 158 159
e 160 159
e 161 159
e 162 159
e 235 159
e 236 159
e 157 160
e 158 160
e 159 160
e 235 160
e 236 160
e 85 161
e 86 161
e 159 161
e 160 161
e 162 161
e 163 161
e 164 161
e 237 161
e 238 161
e 159 162
e 160 162
e 161 162
e 237 162
e 238 162
e 87 163
e 88 163
e 161 163
e 162 163
e 164 163
e 165 163
e 166 163
e 239 163
e 240 163
e 161 164
e 162 164
e 163 164
e 239 164
e 240 164
e 89 165
e 90 165
e 163 165
e 164 165
e 166 165
e 167 165
e 168 165
e 241 165
e 242 165
e 163 166
e 164 166
e 165 166
e 241 166
e 242 166
e 91 167
e 92 167
e 165 167
e 166 167
e 168 167
e 169 167
e 170 167
e 243 167
e 244 167
e 165 168
e 166 168
e 167 168
e 243 168
e 244 168
e 93 169
e 94 169
e 167 169
e 168 169
e 170 169
e 171 169
e 172 169
e 245 169
e 246 169
e 167 170
e 168 170
e 169 170
e 245 170
e 246 170
e 95 171
e 96 171
e 169 171
e 170 171
e 172 171
e 173 171
e 174 171
e 247 171
e 248 171
e 169 172
e 170 172
e 171 172
e 247 172
e 248 172
e 97 173
e 98 173
e 171 173
e 172 173
e 174 173
e 175 173
e 176 173
e 249 173
e 250 173
e 171 174
e 172 174
e 173 174
e 249 174
e 250 174
e 99 175
e 100 175
e 173 175
e 174 175
e 176 175
e 177 175
e 178 175
e 251 175
e 252 175
e 173 176
e 174 176
e 175 176
e 251 176
e 252 176
e 101 177
e 102 177
e 175 177
e 176 177
e 178 177
e 179 177
e 180 177
e 253 177
e 254 177
e 175 178
e 176 178
e 177 178
e 253 178
e 254 178
e 103 179
e 104 179
e 177 179
e 178 179
e 180 179
e 181 179
e 182 179
e 255 179
e 256 179
e 177 180
e 178 180
e 179 180
e 255 180
e 256 180
e 105 181
e 106 181
e 179 181
e 180 181
e 182 181
e 183 181
e 184 181
e 257 181
e 258 181
e 179 182
e 180 182
e 181 182
e 257 182
e 258 182
e 107 183
e 108 183
e 181 183
e 182 183
e 184 183
e 185 183
e 186 183
e 259 183
e 260 183
e 181 184
e 182 184
e 183 184
e 259 184
e 260 184
e 109 185
e 110 185
e 183 185
e 184 185
e 186 185
e 187 185
e 188 185
e 261 185
e 262 185
e 183 186
e 184 186
e 185 186
e 261 186
e 262 186
e 111 187
e 112 187
e 185 187
e 186 187
e 188 187
e 189 187
e 190 187
e 263 187
e 264 187
e 185 188
e 186 188
e 187 188
e 263 188
e 264 188
e 113 189
e 114 189
e 187 189
e 188 189
e 190 189
e 191 189
e 192 189
e 265 189
e 266 189
e 187 190
e 188 190
e 189 190
e 265 190
e 266 190
e 115 191
e 116 191
e 189 191
e 190 191
e 192 191
e 193 191
e 194 191
e 267 191
e 268 191
e 189 192
e 190 192
e 191 192
e 267 192
e 268 192
e 117 193
e 118 193
e 191 193
e 192 193
e 194 193
e 195 193
e 196 193
e 269 193
e 270 193
e 191 194
e 192 194
e 193 194
e 269 194
e 270 194
e 119 195
e 120 195
e 193 195
e 194 195
e 196 195
e 197 195
e 198 195
e 271 195
e 272 195
e 193 196
e 194 196
e 195 196
e 271 196
e 272 196
e 121 197
e 122 197
e 195 197
e 196 197
e 198 197
e 199 197
e 200 197
e 273 197
e 274 197
e 195 198
e 196 198
e 197 198
e 273 198
e 274 198
e 123 199
e 124 199
e 197 199
e 198 199
e 200 199
e 201 199
e 202 199
e 275 199
e 276 199
e 197 200
e 198 200
e 199 200
e 275 200
e 276 200
e 125 201
e 126 201
e 199 201
e 200 201
e 202 201
e 203 201
e 204 201
e 277 201
e 278 201
e 199 202
e 200 202
e 201 202
e 277 202
e 278 202
e 127 203
e 128 203
e 201 203
e 202 203
e 204 203
e 205 203
e 206 203
e 279 203
e 280 203
e 201 204
e 202 204
e 203 204
e 279 204
e 280 204
e 129 205
e 130 205
e 203 205
e 204 205
e 206 205
e 207 205
e 208 205
e 281 205
e 282 205
e 203 206
e 204 206
e 205 206
e 281 206
e 282 206
e 131 207
e 132 207
e 205 207
e 206 207
e 208 207
e 209 207
e 210 207
e 283 207
e 284 207
e 205 208
e 206 208
e 207 208
e 283 208
e 284 208
e 133 209
e 134 209
e 207 209
e 208 209
e 210 209
e 211 209
e 212 209
e 285 209
e 286 209
e 207 210
e 208 210
e 209 210
e 285 210
e 286 210
e 135 211
e 136 211
e 209 211
e 210 211
e 212 211
e 213 211
e 214 211
e 287 211
e 288 211
e 209 212
e 210 212
e 211 212
e 287 212
e 288 212
e 137 213
e 138 213
e 211 213
e 212 213
e 214 213
e 215 213
e 216 213
e 289 213
e 290 213
e 211 214
e 212 214
e 213 214
e 289 214
e 290 214
e 139 215
e 140 215
e 213 215
e 214 215
e 216 215
e 217 215
e 218 215
e 291 215
e 292 215
e 213 216
e 214 216
e 215 216
e 291 216
e 292 216
e 141 217
e 142 217
e 215 217
e 216 217
e 218 217
e 219 217
e 220 217
e 293 217
e 294 217
e 215 218
e 216 218
e 217 218
e 293 218
e 294 218
e 143 219
e 144 219
e 217 219
e 218 219
e 220 219
e 221 219
e 295 219
e 296 219
e 217 220
e 218 220
e 219 220
e 295 220
e 296 220
e 145 221
e 219 221
e 222 221
e 223 221
e 297 221
e 221 222
e 147 223
e 221 223
e 224 223
e 225 223
e 299 223
e 223 224
e 149 225
e 223 225
e 226 225
e 227 225
e 228 225
e 301 225
e 225 226
e 151 227
e 152 227
e 225 227
e 226 227
e 228 227
e 303 227
e 304 227
e 151 228
e 225 228
e 226 228
e 227 228
e 304 228
e 153 229
e 154 229
e 230 229
e 231 229
e 232 229
e 305 229
e 306 229
e 229 230
e 155 231
e 156 231
e 229 231
e 230 231
e 232 231
e 233 231
e 234 231
e 307 231
e 308 231
e 229 232
e 230 232
e 231 232
e 157 233
e 158 233
e 231 233
e 232 233
e 234 233
e 235 233
e 236 233
e 309 233
e 310 233
e 231 234
e 232 234
e 233 234
e 159 235
e 160 235
e 233 235
e 234 235
e 236 235
e 237 235
e 238 235
e 311 235
e 312 235
e 233 236
e 234 236
e 235 236
e 161 237
e 162 237
e 235 237
e 236 237
e 238 237
e 239 237
e 240 237
e 313 237
e 314 237
e 235 238
e 236 238
e 237 238
e 163 239
e 164 239
e 237 239
e 238 239
e 240 239
e 241 239
e 242 239
e 315 239
e 316 239
e 237 240
e 238 240
e 239 240
e 165 241
e 166 241
e 239 241
e 240 241
e 242 241
e 243 241
e 244 241
e 317 241
e 318 241
e 239 242
e 240 242
e 241 242
e 167 243
e 168 243
e 241 243
e 242 243
e 244 243
e 245 243
e 246 243
e 319 243
e 320 243
e 241 244
e 242 244
e 243 244
e 169 245
e 170 245
e 243 245
e 244 245
e 246 245
e 247 245
e 248 245
e 321 245
e 322 245
e 243 246
e 244 246
e 245 246
e 171 247
e 172 247
e 245 247
e 246 247
e 248 247
e 249 247
e 250 247
e 323 247
e 324 247
e 245 248
e 246 248
e 247 248
e 173 249
e 174 249
e 247 249
e 248 249
e 250 249
e 251 249
e 252 249
e 325 249
e 326 249
e 247 250
e 248 250
e 249 250
e 175 251
e 176 251
e 249 251
e 250 251
e 252 251
e 253 251
e 254 251
e 327 251
e 328 251
e 249 252
e 250 252
e 251 252
e 177 253
e 178 253
e 251 253
e 252 253
e 254 253
e 255 253
e 256 253
e 329 253
e 330 253
e 251 254
e 252 254
e 253 254
e 179 255
e 180 255
e 253 255
e 254 255
e 256 255
e 257 255
e 258 255
e 331 255
e 332 255
e 253 256
e 254 256
e 255 256
e 181 257
e 182 257
e 255 257
e 256 257
e 258 257
e 259 257
e 260 257
e 333 257
e 334 257
e 255 258
e 256 258
e 257 258
e 183 259
e 184 259
e 257 259
e 258 259
e 260 259
e 261 259
e 262 259
e 335 259
e 336 259
e 257 260
e 258 260
e 259 260
e 185 261
e 186 261
e 259 261
e 260 261
e 262 261
e 263 261
e 264 261
e 337 261
e 338 261
e 259 262
e 260 262
e 261 262
e 187 263
e 188 263
e 261 263
e 262 263
e 264 263
e 265 263
e 266 263
e 339 263
e 340 263
e 261 264
e 262 264
e 263 264
e 189 265
e 190 265
e 263 265
e 264 265
e 266 265
e 267 265
e 268 265
e 341 265
e 342 265
e 263 266
e 264 266
e 265 266
e 191 267
e 192 267
e 265 267
e 266 267
e 268 267
e 269 267
e 270 267
e 343 267
e 344 267
e 265 268
e 266 268
e 267 268
e 193 269
e 194 269
e 267 269
e 268 269
e 270 269
e 271 269
e 272 269
e 345 269
e 346 269
e 267 270
e 268 270
e 269 270
e 195 271
e 196 271
e 269 271
e 270 271
e 272 271
e 273 271
e 274 271
e 347 271
e 348 271
e 269 272
e 270 272
e 271 272
e 197 273
e 198 273
e 271 273
e 272 273
e 274 273
e 275 273
e 276 273
e 349 273
e 350 273
e 271 274
e 272 274
e 273 274
e 199 275
e 200 275
e 273 275
e 274 275
e 276 275
e 277 275
e 278 275
e 351 275
e 352 275
e 273 276
e 274 276
e 275 276
e 201 277
e 202 277
e 275 277
e 276 277
e 278 277
e 279 277
e 280 277
e 353 277
e 354 277
e 275 278
e 276 278
e 277 278
e 203 279
e 204 279
e 277 279
e 278 279
e 280 279
e 281 279
e 282 279
e 355 279
e 356 279
e 277 280
e 278 280
e 279 280
e 205 281
e 206 281
e 279 281
e 280 281
e 282 281
e 283 281
e 284 281
e 357 281
e 358 281
e 279 282
e 280 282
e 281 282
e 207 283
e 208 283
e 281 283
e 282 283
e 284 283
e 285 283
e 286 283
e 359 283
e 360 283
e 281 284
e 282 284
e 283 284
e 209 285
e 210 285
e 283 285
e 284 285
e 286 285
e 287 285
e 288 285
e 361 285
e 362 285
e 283 286
e 284 286
e 285 286
e 211 287
e 212 287
e 285 287
e 286 287
e 288 287
e 289 287
e 290 287
e 363 287
e 364 287
e 285 288
e 286 288
e 287 288
e 213 289
e 214 289
e 287 289
e 288 289
e 290 289
e 291 289
e 292 289
e 365 289
e 366 289
e 287 290
e 288 290
e 289 290
e 215 291
e 216 291
e 289 291
e 290 291
e 292 291
e 293 291
e 294 291
e 367 291
e 368 291
e 289 292
e 290 292
e 291 292
e 217 293
e 218 293
e 291 293
e 292 293
e 294 293
e 295 293
e 296 293
e 369 293
e 370 293
e 291 294
e 292 294
e 293 294
e 219 295
e 220 295
e 293 295
e 294 295
e 296 295
e 297 295
e 371 295
e 372 295
e 293 296
e 294 296
e 295 296
e 221 297
e 295 297
e 298 297
e 299 297
e 373 297
e 297 298
e 223 299
e 297 299
e 300 299
e 301 299
e 302 299
e 375 299
e 299 300
e 225 301
e 299 301
e 300 301
e 302 301
e 303 301
e 304 301
e 377 301
e 299 302
e 300 302
e 301 302
e 227 303
e 228 303
e 301 303
e 302 303
e 304 303
e 379 303
e 380 303
e 227 304
e 301 304
e 302 304
e 303 304
e 380 304
e 229 305
e 230 305
e 306 305
e 307 305
e 308 305
e 381 305
e 382 305
e 229 306
e 230 306
e 305 306
e 231 307
e 232 307
e 305 307
e 306 307
e 308 307
e 309 307
e 310 307
e 383 307
e 384 307
e 231 308
e 232 308
e 305 308
e 306 308
e 307 308
e 233 309
e 234 309
e 307 309
e 308 309
e 310 309
e 311 309
e 312 309
e 385 309
e 386 309
e 233 310
e 234 310
e 307 310
e 308 310
e 309 310
e 235 311
e 236 311
e 309 311
e 310 311
e 312 311
e 313 311
e 314 311
e 387 311
e 388 311
e 235 312
e 236 312
e 309 312
e 310 312
e 311 312
e 237 313
e 238 313
e 311 313
e 312 313
e 314 313
e 315 313
e 316 313
e 389 313
e 390 313
e 237 314
e 238 314
e 311 314
e 312 314
e 313 314
e 239 315
e 240 315
e 313 315
e 314 315
e 316 315
e 317 315
e 318 315
e 391 315
e 392 315
e 239 316
e 240 316
e 313 316
e 314 316
e 315 316
e 241 317
e 242 317
e 315 317
e 316 317
e 318 317
e 319 317
e 320 317
e 393 317
e 394 317
e 241 318
e 242 318
e 315 318
e 316 318
e 317 318
e 243 319
e 244 319
e 317 319
e 318 319
e 320 319
e 321 319
e 322 319
e 395 319
e 396 319
e 243 320
e 244 320
e 317 320
e 318 320
e 319 320
e 245 321
e 246 321
e 319 321
e 320 321
e 322 321
e 323 321
e 324 321
e 397 321
e 398 321
e 245 322
e 246 322
e 319 322
e 320 322
e 321 322
e 247 323
e 248 323
e 321 323
e 322 323
e 324 323
e 325 323
e 326 323
e 399 323
e 400 323
e 247 324
e 248 324
e 321 324
e 322 324
e 323 324
e 249 325
e 250 325
e 323 325
e 324 325
e 326 325
e 327 325
e 328 325
e 401 325
e 402 325
e 249 326
e 250 326
e 323 326
e 324 326
e 325 326
e 251 327
e 252 327
e 325 327
e 326 327
e 328 327
e 329 327
e 330 327
e 403 327
e 404 327
e 251 328
e 252 328
e 325 328
e 326 328
e 327 328
e 253 329
e 254 329
e 327 329
e 328 329
e 330 329
e 331 329
e 332 329
e 405 329
e 406 329
e 253 330
e 254 330
e 327 330
e 328 330
e 329 330
e 255 331
e 256 331
e 329 331
e 330 331
e 332 331
e 333 331
e 334 331
e 407 331
e 408 331
e 255 332
e 256 332
e 329 332
e 330 332
e 331 332
e 257 333
e 258 333
e 331 333
e 332 333
e 334 333
e 335 333
e 336 333
e 409 333
e 410 333
e 257 334
e 258 334
e 331 334
e 332 334
e 333 334
e 259 335
e 260 335
e 333 335
e 334 335
e 336 335
e 337 335
e 338 335
e 411 335
e 412 335
e 259 336
e 260 336
e 333 336
e 334 336
e 335 336
e 261 337
e 262 337
e 335 337
e 336 337
e 338 337
e 339 337
e 340 337
e 413 337
e 414 337
e 261 338
e 262 338
e 335 338
e 336 338
e 337 338
e 263 339
e 264 339
e 337 339
e 338 339
e 340 339
e 341 339
e 342 339
e 415 339
e 416 339
e 263 340
e 264 340
e 337 340
e 338 340
e 339 340
e 265 341
e 266 341
e 339 341
e 340 341
e 342 341
e 343 341
e 344 341
e 417 341
e 418 341
e 265 342
e 266 342
e 339 342
e 340 342
e 341 342
e 267 343
e 268 343
e 341 343
e 342 343
e 344 343
e 345 343
e 346 343
e 419 343
e 420 343
e 267 344
e 268 344
e 341 344
e 342 344
e 343 344
e 269 345
e 270 345
e 343 345
e 344 345
e 346 345
e 347 345
e 348 345
e 421 345
e 422 345
e 269 346
e 270 346
e 343 346
e 344 346
e 345 346
e 271 347
e 272 347
e 345 347
e 346 347
e 348 347
e 349 347
e 350 347
e 423 347
e 424 347
e 271 348
e 272 348
e 345 348
e 346 348
e 347 348
e 273 349
e 274 349
e 347 349
e 348 349
e 350 349
e 351 349
e 352 349
e 425 349
e 426 349
e 273 350
e 274 350
e 347 350
e 348 350
e 349 350
e 275 351
e 276 351
e 349 351
e 350 351
e 352 351
e 353 351
e 354 351
e 427 351
e 428 351
e 275 352
e 276 352
e 349 352
e 350 352
e 351 352
e 277 353
e 278 353
e 351 353
e 352 353
e 354 353
e 355 353
e 356 353
e 429 353
e 430 353
e 277 354
e 278 354
e 351 354
e 352 354
e 353 354
e 279 355
e 280 355
e 353 355
e 354 355
e 356 355
e 357 355
e 358 355
e 431 355
e 432 355
e 279 356
e 280 356
e 353 356
e 354 356
e 355 356
e 281 357
e 282 357
e 355 357
e 356 357
e 358 357
e 359 357
e 360 357
e 433 357
e 434 357
e 281 358
e 282 358
e 355 358
e 356 358
e 357 358
e 283 359
e 284 359
e 357 359
e 358 359
e 360 359
e 361 359
e 362 359
e 435 359
e 436 359
e 283 360
e 284 360
e 357 360
e 358 360
e 359 360
e 285 361
e 286 361
e 359 361
e 360 361
e 362 361
e 363 361
e 364 361
e 437 361
e 438 361
e 285 362
e 286 362
e 359 362
e 360 362
e 361 362
e 287 363
e 288 363
e 361 363
e 362 363
e 364 363
e 365 363
e 366 363
e 439 363
e 440 363
e 287 364
e 288 364
e 361 364
e 362 364
e 363 364
e 289 365
e 290 365
e 363 365
e 364 365
e 366 365
e 367 365
e 368 365
e 441 365
e 442 365
e 289 366
e 290 366
e 363 366
e 364 366
e 365 366
e 291 367
e 292 367
e 365 367
e 366 367
e 368 367
e 369 367
e 370 367
e 443 367
e 444 367
e 291 368
e 292 368
e 365 368
e 366 368
e 367 368
e 293 369
e 294 369
e 367 369
e 368 369
e 370 369
e 371 369
e 372 369
e 445 369
e 446 369
e 293 370
e 294 370
e 367 370
e 368 370
e 369 370
e 295 371
e 296 371
e 369 371
e 370 371
e 372 371
e 373 371
e 447 371
e 448 371
e 295 372
e 296 372
e 369 372
e 370 372
e 371 372
e 297 373
e 371 373
e 374 373
e 375 373
e 449 373
e 373 374
e 299 375
e 373 375
e 376 375
e 377 375
e 451 375
e 375 376
e 301 377
e 375 377
e 378 377
e 379 377
e 453 377
e 377 378
e 303 379
e 304 379
e 377 379
e 380 379
e 455 379
e 379 380
e 305 381
e 306 381
e 382 381
e 383 381
e 384 381
e 457 381
e 458 381
e 305 382
e 306 382
e 381 382
e 458 382
e 307 383
e 308 383
e 381 383
e 382 383
e 384 383
e 385 383
e 386 383
e 459 383
e 460 383
e 307 384
e 308 384
e 381 384
e 382 384
e 383 384
e 460 384
e 309 385
e 310 385
e 383 385
e 384 385
e 386 385
e 387 385
e 388 385
e 461 385
e 462 385
e 309 386
e 310 386
e 383 386
e 384 386
e 385 386
e 462 386
e 311 387
e 312 387
e 385 387
e 386 387
e 388 387
e 389 387
e 390 387
e 463 387
e 464 387
e 311 388
e 312 388
e 385 388
e 386 388
e 387 388
e 464 388
e 313 389
e 314 389
e 387 389
e 388 389
e 390 389
e 391 389
e 392 389
e 465 389
e 466 389
e 313 390
e 314 390
e 387 390
e 388 390
e 389 390
e 466 390
e 315 391
e 316 391
e 389 391
e 390 391
e 392 391
e 393 391
e 394 391
e 467 391
e 468 391
e 315 392
e 316 392
e 389 392
e 390 392
e 391 392
e 468 392
e 317 393
e 318 393
e 391 393
e 392 393
e 394 393
e 395 393
e 396 393
e 469 393
e 470 393
e 317 394
e 318 394
e 391 394
e 392 394
e 393 394
e 470 394
e 319 395
e 320 395
e 393 395
e 394 395
e 396 395
e 397 395
e 398 395
e 471 395
e 472 395
e 319 396
e 320 396
e 393 396
e 394 396
e 395 396
e 472 396
e 321 397
e 322 397
e 395 397
e 396 397
e 398 397
e 399 397
e 400 397
e 473 397
e 474 397
e 321 398
e 322 398
e 395 398
e 396 398
e 397 398
e 474 398
e 323 399
e 324 399
e 397 399
e 398 399
e 400 399
e 401 399
e 402 399
e 475 399
e 476 399
e 323 400
e 324 400
e 397 400
e 398 400
e 399 400
e 476 400
e 325 401
e 326 401
e 399 401
e 400 401
e 402 401
e 403 401
e 404 401
e 477 401
e 478 401
e 325 402
e 326 402
e 399 402
e 400 402
e 401 402
e 478 402
e 327 403
e 328 403
e 401 403
e 402 403
e 404 403
e 405 403
e 406 403
e 479 403
e 480 403
e 327 404
e 328 404
e 401 404
e 402 404
e 403 404
e 480 404
e 329 405
e 330 405
e 403 405
e 404 405
e 406 405
e 407 405
e 408 405
e 481 405
e 482 405
e 329 406
e 330 406
e 403 406
e 404 406
e 405 406
e 482 406
e 331 407
e 332 407
e 405 407
e 406 407
e 408 407
e 409 407
e 410 407
e 483 407
e 484 407
e 331 408
e 332 408
e 405 408
e 406 408
e 407 408
e 484 408
e 333 409
e 334 409
e 407 409
e 408 409
e 410 409
e 411 409
e 412 409
e 485 409
e 486 409
e 333 410
e 334 410
e 407 410
e 408 410
e 409 410
e 486 410
e 335 411
e 336 411
e 409 411
e 410 411
e 412 411
e 413 411
e 414 411
e 487 411
e 488 411
e 335 412
e 336 412
e 409 412
e 410 412
e 411 412
e 488 412
e 337 413
e 338 413
e 411 413
e 412 413
e 414 413
e 415 413
e 416 413
e 489 413
e 490 413
e 337 414
e 338 414
e 411 414
e 412 414
e 413 414
e 490 414
e 339 415
e 340 415
e 413 415
e 414 415
e 416 415
e 417 415
e 418 415
e 491 415
e 492 415
e 339 416
e 340 416
e 413 416
e 414 416
e 415 416
e 492 416
e 341 417
e 342 417
e 415 417
e 416 417
e 418 417
e 419 417
e 420 417
e 493 417
e 494 417
e 341 418
e 342 418
e 415 418
e 416 418
e 417 418
e 494 418
e 343 419
e 344 419
e 417 419
e 418 419
e 420 419
e 421 419
e 422 419
e 495 419
e 496 419
e 343 420
e 344 420
e 417 420
e 418 420
e 419 420
e 496 420
e 345 421
e 346 421
e 419 421
e 420 421
e 422 421
e 423 421
e 424 421
e 497 421
e 498 421
e 345 422
e 346 422
e 419 422
e 420 422
e 421 422
e 498 422
e 347 423
e 348 423
e 421 423
e 422 423
e 424 423
e 425 423
e 426 423
e 499 423
e 500 423
e 347 424
e 348 424
e 421 424
e 422 424
e 423 424
e 500 424
e 349 425
e 350 425
e 423 425
e 424 425
e 426 425
e 427 425
e 428 425
e 501 425
e 502 425
e 349 426
e 350 426
e 423 426
e 424 426
e 425 426
e 502 426
e 351 427
e 352 427
e 425 427
e 426 427
e 428 427
e 429 427
e 430 427
e 503 427
e 504 427
e 351 428
e 352 428
e 425 428
e 426 428
e 427 428
e 504 428
e 353 429
e 354 429
e 427 429
e 428 429
e 430 429
e 431 429
e 432 429
e 505 429
e 506 429
e 353 430
e 354 430
e 427 430
e 428 430
e 429 430
e 506 430
e 355 431
e 356 431
e 429 431
e 430 431
e 432 431
e 433 431
e 434 431
e 507 431
e 508 431
e 355 432
e 356 432
e 429 432
e 430 432
e 431 432
e 508 432
e 357 433
e 358 433
e 431 433
e 432 433
e 434 433
e 435 433
e 436 433
e 509 433
e 510 433
e 357 434
e 358 434
e 431 434
e 432 434
e 433 434
e 510 434
e 359 435
e 360 435
e 433 435
e 434 435
e 436 435
e 437 435
e 438 435
e 511 435
e 512 435
e 359 436
e 360 436
e 433 436
e 434 436
e 435 436
e 512 436
e 361 437
e 362 437
e 435 437
e 436 437
e 438 437
e 439 437
e 440 437
e 513 437
e 514 437
e 361 438
e 362 438
e 435 438
e 436 438
e 437 438
e 514 438
e 363 439
e 364 439
e 437 439
e 438 439
e 440 439
e 441 439
e 442 439
e 515 439
e 516 439
e 363 440
e 364 440
e 437 440
e 438 440
e 439 440
e 516 440
e 365 441
e 366 441
e 439 441
e 440 441
e 442 441
e 443 441
e 444 441
e 517 441
e 518 441
e 365 442
e 366 442
e 439 442
e 440 442
e 441 442
e 518 442
e 367 443
e 368 443
e 441 443
e 442 443
e 444 443
e 445 443
e 446 443
e 519 443
e 520 443
e 367 444
e 368 444
e 441 444
e 442 444
e 443 444
e 520 444
e 369 445
e 370 445
e 443 445
e 444 445
e 446 445
e 447 445
e 448 445
e 521 445
e 522 445
e 369 446
e 370 446
e 443 446
e 444 446
e 445 446
e 522 446
e 371 447
e 372 447
e 445 447
e 446 447
e 448 447
e 449 447
e 523 447
e 524 447
e 371 448
e 372 448
e 445 448
e 446 448
e 447 448
e 524 448
e 373 449
e 447 449
e 450 449
e 451 449
e 525 449
e 449 450
e 375 451
e 449 451
e 452 451
e 453 451
e 527 451
e 451 452
e 377 453
e 451 453
e 454 453
e 455 453
e 529 453
e 453 454
e 379 455
e 453 455
e 456 455
e 531 455
e 455 456
e 381 457
e 382 457
e 458 457
e 459 457
e 460 457
e 381 458
e 457 458
e 383 459
e 384 459
e 457 459
e 458 459
e 460 459
e 461 459
e 462 459
e 383 460
e 457 460
e 458 460
e 459 460
e 385 461
e 386 461
e 459 461
e 460 461
e 462 461
e 463 461
e 464 461
e 385 462
e 459 462
e 460 462
e 461 462
e 387 463
e 388 463
e 461 463
e 462 463
e 464 463
e 465 463
e 466 463
e 387 464
e 461 464
e 462 464
e 463 464
e 389 465
e 390 465
e 463 465
e 464 465
e 466 465
e 467 465
e 468 465
e 389 466
e 463 466
e 464 466
e 465 466
e 391 467
e 392 467
e 465 467
e 466 467
e 468 467
e 469 467
e 470 467
e 391 468
e 465 468
e 466 468
e 467 468
e 393 469
e 394 469
e 467 469
e 468 469
e 470 469
e 471 469
e 472 469
e 393 470
e 467 470
e 468 470
e 469 470
e 395 471
e 396 471
e 469 471
e 470 471
e 472 471
e 473 471
e 474 471
e 395 472
e 469 472
e 470 472
e 471 472
e 397 473
e 398 473
e 471 473
e 472 473
e 474 473
e 475 473
e 476 473
e 397 474
e 471 474
e 472 474
e 473 474
e 399 475
e 400 475
e 473 475
e 474 475
e 476 475
e 477 475
e 478 475
e 399 476
e 473 476
e 474 476
e 475 476
e 401 477
e 402 477
e 475 477
e 476 477
e 478 477
e 479 477
e 480 477
e 401 478
e 475 478
e 476 478
e 477 478
e 403 479
e 404 479
e 477 479
e 478 479
e 480 479
e 481 479
e 482 479
e 403 480
e 477 480
e 478 480
e 479 480
e 405 481
e 406 481
e 479 481
e 480 481
e 482 481
e 483 481
e 484 481
e 405 482
e 479 482
e 480 482
e 481 482
e 407 483
e 408 483
e 481 483
e 482 483
e 484 483
e 485 483
e 486 483
e 407 484
e 481 484
e 482 484
e 483 484
e 409 485
e 410 485
e 483 485
e 484 485
e 486 485
e 487 485
e 488 485
e 409 486
e 483 486
e 484 486
e 485 486
e 411 487
e 412 487
e 485 487
e 486 487
e 488 487
e 489 487
e 490 487
e 411 488
e 485 488
e 486 488
e 487 488
e 413 489
e 414 489
e 487 489
e 488 489
e 490 489
e 491 489
e 492 489
e 413 490
e 487 490
e 488 490
e 489 490
e 415 491
e 416 491
e 489 491
e 490 491
e 492 491
e 493 491
e 494 491
e 415 492
e 489 492
e 490 492
e 491 492
e 417 493
e 418 493
e 491 493
e 492 493
e 494 493
e 495 493
e 496 493
e 417 494
e 491 494
e 492 494
e 493 494
e 419 495
e 420 495
e 493 495
e 494 495
e 496 495
e 497 495
e 498 495
e 419 496
e 493 496
e 494 496
e 495 496
e 421 497
e 422 497
e 495 497
e 496 497
e 498 497
e 499 497
e 500 497
e 421 498
e 495 498
e 496 498
e 497 498
e 423 499
e 424 499
e 497 499
e 498 499
e 500 499
e 501 499
e 502 499
e 423 500
e 497 500
e 498 500
e 499 500
e 425 501
e 426 501
e 499 501
e 500 501
e 502 501
e 503 501
e 504 501
e 425 502
e 499 502
e 500 502
e 501 502
e 427 503
e 428 503
e 501 503
e 502 503
e 504 503
e 505 503
e 506 503
e 427 504
e 501 504
e 502 504
e 503 504
e 429 505
e 430 505
e 503 505
e 504 505
e 506 505
e 507 505
e 508 505
e 429 506
e 503 506
e 504 506
e 505 506
e 431 507
e 432 507
e 505 507
e 506 507
e 508 507
e 509 507
e 510 507
e 431 508
e 505 508
e 506 508
e 507 508
e 433 509
e 434 509
e 507 509
e 508 509
e 510 509
e 511 509
e 512 509
e 433 510
e 507 510
e 508 510
e 509 510
e 435 511
e 436 511
e 509 511
e 510 511
e 512 511
e 513 511
e 514 511
e 435 512
e 509 512
e 510 512
e 511 512
e 437 513
e 438 513
e 511 513
e 512 513
e 514 513
e 515 513
e 516 513
e 437 514
e 511 514
e 512 514
e 513 514
e 439 515
e 440 515
e 513 515
e 514 515
e 516 515
e 517 515
e 518 515
e 439 516
e 513 516
e 514 516
e 515 516
e 441 517
e 442 517
e 515 517
e 516 517
e 518 517
e 519 517
e 520 517
e 441 518
e 515 518
e 516 518
e 517 518
e 443 519
e 444 519
e 517 519
e 518 519
e 520 519
e 521 519
e 522 519
e 443 520
e 517 520
e 518 520
e 519 520
e 445 521
e 446 521
e 519 521
e 520 521
e 522 521
e 523 521
e 524 521
e 445 522
e 519 522
e 520 522
e 521 522
e 447 523
e 448 523
e 521 523
e 522 523
e 524 523
e 525 523
e 447 524
e 521 524
e 522 524
e 523 524
e 449 525
e 523 525
e 526 525
e 527 525
e 525 526
e 451 527
e 525 527
e 528 527
e 529 527
e 527 528
e 453 529
e 527 529
e 530 529
e 531 529
e 532 529
e 529 530
e 455 531
e 529 531
e 530 531
e 532 531
e 455 532
e 529 532
e 530 532
e 531 532
